
List of user-set options:

                                    Name   Value                used
                           linear_solver = ma57                  yes
                  ma57_automatic_scaling = yes                   yes
                                max_iter = 2000                  yes
                             mu_strategy = adaptive              yes
                             output_file = DynamicOptimization_FtildeStateIPOPTinfo.txt  yes
                             print_level = 5                     yes
                      print_user_options = yes                   yes
                                     tol = 1e-006                yes
This is Ipopt version 3.11.0, running with linear solver ma57.

Number of nonzeros in equality constraint Jacobian...:    89811
Number of nonzeros in inequality constraint Jacobian.:       92
Number of nonzeros in Lagrangian Hessian.............:    39270

Reallocating memory for MA57: lfact (1620346)
Total number of variables............................:    19997
                     variables with only lower bounds:        0
                variables with lower and upper bounds:    19997
                     variables with only upper bounds:        0
Total number of equality constraints.................:    15121
Total number of inequality constraints...............:       47
        inequality constraints with only lower bounds:        0
   inequality constraints with lower and upper bounds:       47
        inequality constraints with only upper bounds:        0

iter    objective    inf_pr   inf_du lg(mu)  ||d||  lg(rg) alpha_du alpha_pr  ls
   0 9.9999900e-003 6.85e+002 3.70e-003   0.0 0.00e+000    -  0.00e+000 0.00e+000   0
   1 1.0671556e-001 4.06e+002 8.72e+000  -4.9 7.91e-001    -  3.85e-002 3.92e-001h  1
   2 5.5258474e-001 2.22e+002 1.69e+001  -1.0 8.20e+000    -  1.79e-001 1.00e+000f  1
   3 6.8171080e-001 1.25e+002 9.83e+000  -5.0 6.79e-001   0.0 3.86e-001 4.21e-001h  1
   4 7.4867323e-001 9.55e+001 7.37e+000  -5.2 2.82e-001   0.4 6.02e-001 2.37e-001h  1
   5 8.2577158e-001 3.15e+001 2.00e+000  -5.6 7.76e-001  -0.1 3.54e-001 7.29e-001h  1
   6 8.4842520e-001 1.90e+001 1.71e+000  -5.8 1.29e-001   0.4 8.97e-001 4.05e-001h  1
   7 6.5689572e-001 3.12e+001 1.20e+000  -6.8 2.48e-001  -0.1 6.46e-001 1.00e+000h  1
   8 5.7095293e-001 8.04e+000 3.53e-001  -3.3 8.59e-002  -0.6 8.39e-001 1.00e+000h  1
   9 6.2799398e-001 3.71e-001 9.46e-003  -3.9 5.70e-002  -1.1 9.90e-001 1.00e+000h  1
iter    objective    inf_pr   inf_du lg(mu)  ||d||  lg(rg) alpha_du alpha_pr  ls
  10 5.9664437e-001 5.09e-001 1.46e-003  -4.4 5.02e-002  -1.5 9.85e-001 1.00e+000h  1
  11 5.0542731e-001 2.73e+000 8.93e-004  -4.5 9.16e-002  -2.0 1.00e+000 9.96e-001h  1
  12 5.2570670e-001 6.26e+000 7.04e-004  -4.3 2.00e-001  -2.5 1.00e+000 1.00e+000h  1
  13 3.6918814e-001 7.73e+000 3.19e-003  -4.8 2.64e-001  -3.0 7.68e-001 1.00e+000h  1
  14 3.4358210e-001 1.43e+002 1.24e-003  -4.7 9.88e-001  -3.4 9.33e-001 1.00e+000h  1
  15 3.3926245e-001 5.27e+003 1.59e-002 -10.7 7.08e+001  -3.9 4.04e-003 3.30e-002h  1
  16 3.6651568e-001 3.08e+003 9.42e-003  -4.5 1.01e+000  -2.6 2.62e-001 4.27e-001h  1
  17 3.6103138e-001 1.62e+003 5.42e-003  -4.7 6.15e-001  -2.2 6.39e-001 4.93e-001h  1
  18 3.5800267e-001 4.19e+002 8.45e-003  -4.7 2.96e-001  -1.7 5.88e-001 8.03e-001h  1
  19 3.4581416e-001 1.12e+001 4.66e-003  -5.3 1.02e-001  -1.3 9.98e-001 1.00e+000h  1
iter    objective    inf_pr   inf_du lg(mu)  ||d||  lg(rg) alpha_du alpha_pr  ls
  20 3.2763863e-001 9.90e-001 1.13e-003  -5.0 7.06e-002  -1.8 1.00e+000 1.00e+000h  1
  21 2.9332942e-001 5.56e+000 5.98e-004  -5.2 1.08e-001  -2.3 9.94e-001 1.00e+000h  1
  22 2.6038794e-001 8.88e+000 2.15e-004  -5.4 1.01e-001  -2.7 1.00e+000 1.00e+000h  1
  23 2.4776075e-001 7.80e+000 1.76e-004  -5.6 1.78e-001  -3.2 1.00e+000 1.00e+000h  1
  24 2.4751984e-001 1.09e+001 2.44e-004  -5.6 4.38e-001  -3.7 1.00e+000 9.07e-001h  1
  25 2.4978535e-001 2.13e+001 2.34e-004  -5.4 8.23e-001  -4.2 2.72e-001 2.20e-001h  1
  26 2.4842129e-001 9.59e+001 6.24e-004  -5.6 7.09e-001  -3.7 5.97e-001 4.88e-001h  1
  27 2.4741647e-001 3.82e+001 4.23e-004  -5.6 2.42e-001  -3.3 8.29e-001 7.46e-001h  1
  28 2.4041037e-001 3.96e+000 1.09e-004  -6.0 7.20e-002  -2.9 9.90e-001 1.00e+000h  1
  29 2.3669405e-001 2.45e+000 3.73e-005  -6.4 9.23e-002  -3.4 1.00e+000 1.00e+000h  1
iter    objective    inf_pr   inf_du lg(mu)  ||d||  lg(rg) alpha_du alpha_pr  ls
  30 2.3838595e-001 8.98e+000 3.21e-004  -6.0 1.94e-001  -3.9 1.00e+000 5.62e-001h  1
  31 2.3599267e-001 5.73e-001 2.60e-005  -6.6 6.89e-002  -3.4 1.00e+000 1.00e+000h  1
  32 2.3509217e-001 4.73e+000 2.52e-005  -6.9 1.97e-001  -3.9 1.00e+000 1.00e+000h  1
  33 2.3568516e-001 8.16e+001 6.48e-004  -6.3 1.13e+000  -4.4 7.91e-001 4.12e-001h  1
  34 2.3568041e-001 8.15e+001 1.01e-003  -6.5 7.38e+000  -4.9 5.45e-002 1.76e-003h  1
  35 2.3569147e-001 6.60e+001 2.77e-004  -6.5 5.07e-001  -4.4 5.72e-001 2.00e-001h  1
  36 2.3567960e-001 1.32e+002 3.28e-004  -6.5 1.08e+000  -4.9 1.97e-001 3.14e-001h  1
  37 2.3569088e-001 8.47e+001 9.74e-005  -6.5 4.84e-001  -4.5 8.10e-001 3.56e-001h  1
  38 2.3565329e-001 5.80e+001 6.50e-005  -6.5 1.57e+000  -5.0 2.14e-001 3.15e-001h  1
  39 2.3564932e-001 1.37e+001 4.46e-005  -6.5 4.87e-001  -4.5 8.66e-001 1.00e+000h  1
iter    objective    inf_pr   inf_du lg(mu)  ||d||  lg(rg) alpha_du alpha_pr  ls
  40 2.3563024e-001 3.20e+000 3.56e-005  -6.5 1.90e-001  -4.1 1.00e+000 9.04e-001h  1
  41 2.3898078e-001 1.12e+001 2.80e-005  -6.0 2.75e-001  -4.6 1.00e+000 1.00e+000f  1
  42 2.3829478e-001 6.32e-001 8.84e-006  -6.1 1.21e-001  -4.2 1.00e+000 1.00e+000h  1
  43 2.3522626e-001 2.45e+000 8.70e-005  -6.6 2.69e-001  -4.6 8.79e-001 1.00e+000h  1
  44 2.3536216e-001 4.41e-001 7.17e-006  -6.5 1.16e-001  -4.2 1.00e+000 1.00e+000h  1
  45 2.3507180e-001 8.52e+000 1.65e-005  -6.6 3.84e-001  -4.7 1.00e+000 1.00e+000h  1
  46 2.3439407e-001 1.84e+000 4.17e-005  -7.1 1.26e-001  -4.3 9.09e-001 1.00e+000h  1
  47 2.3443074e-001 2.06e+000 6.01e-006  -7.0 3.28e-001  -4.7 1.00e+000 1.00e+000H  1
  48 2.3564511e-001 3.24e+001 1.48e-003  -6.4 5.74e-001  -5.2 3.36e-001 1.00e+000h  1
  49 2.3556196e-001 3.01e+001 1.43e-003  -6.8 2.65e+000  -5.7 3.70e-001 7.12e-002h  1
iter    objective    inf_pr   inf_du lg(mu)  ||d||  lg(rg) alpha_du alpha_pr  ls
  50 2.3460921e-001 5.44e+000 4.65e-005  -6.8 5.48e-001  -5.3 1.00e+000 9.70e-001h  1
  51 2.3466267e-001 4.20e+000 1.19e-004  -6.8 7.87e-001  -5.7 1.00e+000 5.20e-001h  1
  52 2.3471561e-001 1.11e+000 1.86e-006  -6.8 3.69e-001  -5.3 1.00e+000 1.00e+000h  1
  53 2.3418471e-001 3.67e+000 6.79e-006  -7.2 6.90e-001  -5.8 1.00e+000 1.00e+000h  1
  54 2.3441941e-001 2.61e+000 2.43e-005  -6.9 1.19e+000  -6.3 1.00e+000 1.00e+000h  1
  55 2.3415582e-001 4.00e+000 2.81e-005  -7.3 1.39e+000  -6.7 1.00e+000 1.00e+000h  1
  56 2.3402100e-001 1.20e+000 9.90e-006  -7.7 4.68e-001  -6.3 1.00e+000 1.00e+000h  1
  57 2.3408852e-001 2.55e+001 3.63e-005  -7.4 4.55e+000  -6.8 9.28e-001 1.00e+000h  1
  58 2.3405739e-001 1.30e+001 1.55e-004  -7.6 4.08e+000  -7.3 1.00e+000 8.46e-001h  1
  59 2.3405600e-001 1.05e+001 1.09e-004  -7.6 5.26e+000  -6.9 3.44e-001 2.23e-001H  1
iter    objective    inf_pr   inf_du lg(mu)  ||d||  lg(rg) alpha_du alpha_pr  ls
  60 2.3405350e-001 1.31e+001 5.18e-004  -7.6 3.56e+000  -7.3 4.77e-001 1.00e+000h  1
  61 2.3405342e-001 2.53e+000 2.56e-003  -7.6 2.08e+000  -7.8 1.00e+000 1.00e+000h  1
  62 2.3405287e-001 1.41e+001 2.77e-004  -7.6 2.41e+000  -7.4 1.00e+000 1.00e+000h  1
  63 2.3405277e-001 1.30e+001 1.06e-003  -7.6 2.37e+000  -7.9 6.91e-001 1.00e+000h  1
  64 2.3405262e-001 5.90e+000 2.13e-003  -7.6 2.19e+000  -7.4 4.61e-001 7.68e-001h  1
  65 2.3405197e-001 1.56e+000 1.74e-001  -7.6 2.20e+001  -7.9 8.57e-002 1.00e+000h  1
  66 2.3405909e-001 1.55e+000 1.70e-001  -6.7 3.49e+001  -7.5 7.19e-002 1.31e-002h  1
  67 2.3421727e-001 5.14e+000 4.25e-003  -7.1 1.22e+001  -7.1 1.21e-001 9.53e-001h  1
  68 2.3415231e-001 3.19e+000 1.94e-003  -7.4 3.82e+000  -7.5 1.75e-001 3.65e-001h  1
  69 2.3410408e-001 1.58e+000 3.95e-003  -7.4 1.19e+001  -8.0 1.00e+000 4.44e-001h  1
iter    objective    inf_pr   inf_du lg(mu)  ||d||  lg(rg) alpha_du alpha_pr  ls
  70 2.3406625e-001 3.42e-001 7.83e-004  -7.4 6.89e+000  -8.5 7.61e-001 8.17e-001h  1
  71 2.3406509e-001 3.05e-001 7.07e-004  -7.4 1.49e+002    -  7.06e-002 1.07e-001h  1
  72 2.3406178e-001 1.85e-001 4.69e-004  -7.4 2.83e+001    -  6.86e-001 3.94e-001h  2
  73 2.3405842e-001 1.25e-001 2.68e-004  -7.4 2.58e+001    -  1.00e+000 6.43e-001h  1
  74 2.3405779e-001 4.23e-002 9.25e-006  -7.4 8.84e+000    -  1.00e+000 1.00e+000h  1
  75 2.3396686e-001 6.01e-001 2.59e-006  -7.8 3.72e+000    -  1.00e+000 1.00e+000h  1
  76 2.3393289e-001 1.95e-001 1.60e-005  -8.1 3.96e+000    -  9.74e-001 1.00e+000h  1
  77 2.3391706e-001 2.42e-002 6.13e-007  -8.3 3.72e+000    -  1.00e+000 1.00e+000h  1
  78 2.3390858e-001 4.54e-003 4.17e-007  -8.6 4.06e+000    -  1.00e+000 1.00e+000h  1
  79 2.3390392e-001 3.89e-003 9.49e-007  -8.9 4.57e+000    -  1.00e+000 1.00e+000h  1
iter    objective    inf_pr   inf_du lg(mu)  ||d||  lg(rg) alpha_du alpha_pr  ls
  80 2.3390265e-001 3.96e-003 2.73e-005  -9.1 3.53e+000    -  9.96e-001 1.00e+000h  1
  81 2.3390110e-001 8.20e-004 1.49e-005  -9.5 9.72e-001  -9.0 1.00e+000 1.00e+000h  1
  82 2.3390537e-001 2.92e-002 1.87e-003  -8.8 1.39e+001    -  4.07e-001 1.00e+000h  1
  83 2.3390235e-001 1.41e-002 1.32e-005  -9.1 1.18e+001    -  1.00e+000 1.00e+000h  1
  84 2.3390239e-001 7.59e-003 1.18e-004  -9.1 2.32e+001    -  8.23e-001 5.42e-001h  1
  85 2.3390240e-001 5.69e-003 1.39e-004  -9.1 6.19e+000    -  1.00e+000 2.50e-001f  3
  86 2.3390243e-001 9.20e-006 3.28e-009  -9.1 5.46e-001    -  1.00e+000 1.00e+000h  1
  87 2.3390094e-001 8.32e-004 6.70e-007  -9.5 3.68e+000    -  1.00e+000 9.99e-001h  1
  88 2.3390038e-001 5.45e-004 1.56e-007  -9.8 4.31e+000    -  1.00e+000 1.00e+000h  1
  89 2.3390002e-001 2.74e-004 7.85e-008 -10.3 3.33e+000    -  1.00e+000 1.00e+000h  1
iter    objective    inf_pr   inf_du lg(mu)  ||d||  lg(rg) alpha_du alpha_pr  ls
  90 2.3389991e-001 4.67e-005 2.09e-008 -10.9 1.82e+000    -  1.00e+000 1.00e+000h  1
  91 2.3389990e-001 1.55e-006 4.27e-010 -11.0 2.65e-001    -  1.00e+000 1.00e+000h  1

Number of Iterations....: 91

                                   (scaled)                 (unscaled)
Objective...............:  2.3389990060847027e-001   2.3389990060847027e-001
Dual infeasibility......:  4.2687566441020167e-010   4.2687566441020167e-010
Constraint violation....:  1.3830090524352834e-007   1.5540676940872800e-006
Complementarity.........:  1.2190411483406116e-011   1.2190411483406116e-011
Overall NLP error.......:  1.3830090524352834e-007   1.5540676940872800e-006


Number of objective function evaluations             = 100
Number of objective gradient evaluations             = 92
Number of equality constraint evaluations            = 100
Number of inequality constraint evaluations          = 100
Number of equality constraint Jacobian evaluations   = 92
Number of inequality constraint Jacobian evaluations = 92
Number of Lagrangian Hessian evaluations             = 91
Total CPU secs in IPOPT (w/o function evaluations)   =     32.899
Total CPU secs in NLP function evaluations           =     85.537

EXIT: Optimal Solution Found.
